language ESSENCE' 1.0
letting lastdx=102
letting cage be [
[37,6,13,6,14,5,14,5,15,0,0],
[16,4,3,0,0, 0,0, 0,0, 0,0],
[6,15,4,0,0, 0,0, 0,0, 0,0],
[13,3,11,0,0, 0,0, 0,0, 0,0],
[10,7,4,0,0, 0,0, 0,0, 0,0],
[16,12,7,0,0, 0,0, 0,0, 0,0],
[16,6,9,5,9,5,10,0,0, 0,0],
[15,2,12,3,12,3,13,0,0, 0,0],
[43,14,6,14,5,15,5,15,6,15,7],
[7,2,2,0,0, 0,0, 0,0, 0,0],
[36,10,3,11,3,11,2,11,1,12,1],
[18,16,3,16,4,16,5,0,0, 0,0],
[5,10,9,0,0, 0,0, 0,0, 0,0],
[13,1,2,0,0, 0,0, 0,0, 0,0],
[24,12,16,11,16,11,15,12,15,0,0],
[14,3,9,0,0, 0,0, 0,0, 0,0],
[27,4,16,5,16,6,16,0,0, 0,0],
[32,11,6,10,6,10,7,9,7,0,0],
[24,14,12,14,13,14,14,0,0, 0,0],
[2,5,12,0,0, 0,0, 0,0, 0,0],
[4,12,4,0,0, 0,0, 0,0, 0,0],
[17,2,11,1,11,1,10,0,0, 0,0],
[23,13,2,14,2,0,0, 0,0, 0,0],
[18,1,1,2,1,0,0, 0,0, 0,0],
[6,6,1,0,0, 0,0, 0,0, 0,0],
[25,8,7,7,7,7,8,0,0, 0,0],
[14,15,3,0,0, 0,0, 0,0, 0,0],
[36,9,6,9,5,9,4,9,3,0,0],
[2,14,4,0,0, 0,0, 0,0, 0,0],
[25,2,7,2,6,3,6,0,0, 0,0],
[12,14,7,13,7,0,0, 0,0, 0,0],
[20,3,5,3,4,2,4,1,4,0,0],
[37,6,5,5,5,5,6,5,7,0,0],
[16,7,3,8,3,0,0, 0,0, 0,0],
[40,16,8,15,8,14,8,0,0, 0,0],
[10,2,5,0,0, 0,0, 0,0, 0,0],
[14,7,12,0,0, 0,0, 0,0, 0,0],
[14,9,11,9,10,0,0, 0,0, 0,0],
[17,15,2,16,2,0,0, 0,0, 0,0],
[22,9,2,9,1,0,0, 0,0, 0,0],
[2,15,11,0,0, 0,0, 0,0, 0,0],
[11,2,16,2,15,0,0, 0,0, 0,0],
[49,10,11,10,10,11,10,11,11,11,12],
[12,8,1,0,0, 0,0, 0,0, 0,0],
[5,13,14,0,0, 0,0, 0,0, 0,0],
[34,12,12,12,13,13,13,13,12,0,0],
[28,1,14,1,15,1,16,0,0, 0,0],
[33,16,14,15,14,15,13,15,12,0,0],
[5,4,11,0,0, 0,0, 0,0, 0,0],
[7,4,12,0,0, 0,0, 0,0, 0,0],
[8,3,14,0,0, 0,0, 0,0, 0,0],
[3,14,3,0,0, 0,0, 0,0, 0,0],
[12,15,1,16,1,0,0, 0,0, 0,0],
[9,9,8,0,0, 0,0, 0,0, 0,0],
[19,1,6,1,5,1,7,1,8,0,0],
[38,4,6,4,7,3,7,0,0, 0,0],
[2,2,10,0,0, 0,0, 0,0, 0,0],
[31,7,14,7,13,8,13,8,14,0,0],
[26,16,11,16,12,16,13,0,0, 0,0],
[11,12,6,12,5,0,0, 0,0, 0,0],
[11,7,5,0,0, 0,0, 0,0, 0,0],
[8,12,8,0,0, 0,0, 0,0, 0,0],
[22,8,8,8,9,9,9,0,0, 0,0],
[14,5,4,0,0, 0,0, 0,0, 0,0],
[16,3,2,4,2,0,0, 0,0, 0,0],
[17,13,9,13,8,0,0, 0,0, 0,0],
[27,16,6,16,7,0,0, 0,0, 0,0],
[37,15,15,15,16,14,16,0,0, 0,0],
[40,2,9,1,9,2,8,0,0, 0,0],
[16,11,8,10,8,11,7,0,0, 0,0],
[14,7,2,7,1,8,2,0,0, 0,0],
[38,7,6,8,6,8,5,8,4,0,0],
[8,16,10,0,0, 0,0, 0,0, 0,0],
[23,4,5,4,4,0,0, 0,0, 0,0],
[22,5,8,6,8,6,7,6,6,0,0],
[9,5,3,0,0, 0,0, 0,0, 0,0],
[25,1,13,1,12,0,0, 0,0, 0,0],
[37,6,12,6,11,5,11,0,0, 0,0],
[22,2,3,1,3,3,3,0,0, 0,0],
[18,10,2,10,1,0,0, 0,0, 0,0],
[42,12,2,12,3,13,3,13,4,0,0],
[24,9,14,10,14,0,0, 0,0, 0,0],
[26,3,10,4,10,0,0, 0,0, 0,0],
[4,9,16,0,0, 0,0, 0,0, 0,0],
[25,3,15,3,16,4,15,0,0, 0,0],
[35,11,13,11,14,12,14,0,0, 0,0],
[15,6,15,0,0, 0,0, 0,0, 0,0],
[25,2,13,2,14,0,0, 0,0, 0,0],
[4,4,13,0,0, 0,0, 0,0, 0,0],
[5,6,2,0,0, 0,0, 0,0, 0,0],
[27,6,3,6,4,0,0, 0,0, 0,0],
[31,6,10,7,10,7,9,0,0, 0,0],
[22,7,11,8,11,8,10,0,0, 0,0],
[3,7,15,0,0, 0,0, 0,0, 0,0],
[31,7,16,8,16,8,15,0,0, 0,0],
[22,9,15,10,15,10,16,0,0, 0,0],
[12,11,9,12,9,0,0, 0,0, 0,0],
[25,13,1,14,1,0,0, 0,0, 0,0],
[7,13,5,13,6,0,0, 0,0, 0,0],
[35,13,10,14,10,14,11,14,9,0,0],
[21,13,15,13,16,14,15,0,0, 0,0],
[20,15,9,15,10,16,9,0,0, 0,0],
[16,16,15,16,16,0,0, 0,0, 0,0]
]
